p cnf 396 1064
c weights 1.0 1.0 2.718281828459045 0.36787944117144233 2.718281828459045 0.36787944117144233 2.718281828459045 0.36787944117144233 2.718281828459045 0.36787944117144233 1.0 1.0 2.718281828459045 0.36787944117144233 2.718281828459045 0.36787944117144233 2.718281828459045 0.36787944117144233 2.718281828459045 0.36787944117144233 1.0 1.0 2.718281828459045 0.36787944117144233 2.718281828459045 0.36787944117144233 2.718281828459045 0.36787944117144233 1.0 1.0 2.718281828459045 0.36787944117144233 2.718281828459045 0.36787944117144233 2.718281828459045 0.36787944117144233 2.718281828459045 0.36787944117144233 2.718281828459045 0.36787944117144233 2.718281828459045 0.36787944117144233 2.718281828459045 0.36787944117144233 2.718281828459045 0.36787944117144233 1.0 1.0 2.718281828459045 0.36787944117144233 2.718281828459045 0.36787944117144233 2.718281828459045 0.36787944117144233 2.718281828459045 0.36787944117144233 2.718281828459045 0.36787944117144233 2.718281828459045 0.36787944117144233 1.0 1.0 2.718281828459045 0.36787944117144233 2.718281828459045 0.36787944117144233 2.718281828459045 0.36787944117144233 2.718281828459045 0.36787944117144233 1.0 1.0 2.718281828459045 0.36787944117144233 2.718281828459045 0.36787944117144233 1.0 1.0 2.718281828459045 0.36787944117144233 2.718281828459045 0.36787944117144233 1.0 1.0 2.718281828459045 0.36787944117144233 2.718281828459045 0.36787944117144233 2.718281828459045 0.36787944117144233 2.718281828459045 0.36787944117144233 1.0 1.0 2.718281828459045 0.36787944117144233 2.718281828459045 0.36787944117144233 1.0 1.0 2.718281828459045 0.36787944117144233 2.718281828459045 0.36787944117144233 2.718281828459045 0.36787944117144233 2.718281828459045 0.36787944117144233 2.718281828459045 0.36787944117144233 1.0 1.0 2.718281828459045 0.36787944117144233 2.718281828459045 0.36787944117144233 2.718281828459045 0.36787944117144233 2.718281828459045 0.36787944117144233 1.0 1.0 2.718281828459045 0.36787944117144233 2.718281828459045 0.36787944117144233 2.718281828459045 0.36787944117144233 2.718281828459045 0.36787944117144233 2.718281828459045 0.36787944117144233 1.0 1.0 2.718281828459045 0.36787944117144233 2.718281828459045 0.36787944117144233 2.718281828459045 0.36787944117144233 1.0 1.0 2.718281828459045 0.36787944117144233 2.718281828459045 0.36787944117144233 1.0 1.0 1.0 1.0 2.718281828459045 0.36787944117144233 2.718281828459045 0.36787944117144233 2.718281828459045 0.36787944117144233 2.718281828459045 0.36787944117144233 2.718281828459045 0.36787944117144233 2.718281828459045 0.36787944117144233 1.0 1.0 2.718281828459045 0.36787944117144233 2.718281828459045 0.36787944117144233 2.718281828459045 0.36787944117144233 2.718281828459045 0.36787944117144233 2.718281828459045 0.36787944117144233 1.0 1.0 2.718281828459045 0.36787944117144233 2.718281828459045 0.36787944117144233 1.0 1.0 2.718281828459045 0.36787944117144233 2.718281828459045 0.36787944117144233 2.718281828459045 0.36787944117144233 2.718281828459045 0.36787944117144233 2.718281828459045 0.36787944117144233 1.0 1.0 2.718281828459045 0.36787944117144233 2.718281828459045 0.36787944117144233 2.718281828459045 0.36787944117144233 2.718281828459045 0.36787944117144233 1.0 1.0 2.718281828459045 0.36787944117144233 2.718281828459045 0.36787944117144233 2.718281828459045 0.36787944117144233 1.0 1.0 2.718281828459045 0.36787944117144233 2.718281828459045 0.36787944117144233 1.0 1.0 2.718281828459045 0.36787944117144233 2.718281828459045 0.36787944117144233 1.0 1.0 2.718281828459045 0.36787944117144233 2.718281828459045 0.36787944117144233 2.718281828459045 0.36787944117144233 2.718281828459045 0.36787944117144233 2.718281828459045 0.36787944117144233 1.0 1.0 2.718281828459045 0.36787944117144233 2.718281828459045 0.36787944117144233 2.718281828459045 0.36787944117144233 2.718281828459045 0.36787944117144233 1.0 1.0 2.718281828459045 0.36787944117144233 2.718281828459045 0.36787944117144233 2.718281828459045 0.36787944117144233 2.718281828459045 0.36787944117144233 2.718281828459045 0.36787944117144233 2.718281828459045 0.36787944117144233 1.0 1.0 1.0 1.0 2.718281828459045 0.36787944117144233 1.0 1.0 2.718281828459045 0.36787944117144233 1.0 1.0 2.718281828459045 0.36787944117144233 2.718281828459045 0.36787944117144233 1.0 1.0 2.718281828459045 0.36787944117144233 2.718281828459045 0.36787944117144233 2.718281828459045 0.36787944117144233 2.718281828459045 0.36787944117144233 1.0 1.0 2.718281828459045 0.36787944117144233 2.718281828459045 0.36787944117144233 2.718281828459045 0.36787944117144233 1.0 1.0 2.718281828459045 0.36787944117144233 2.718281828459045 0.36787944117144233 2.718281828459045 0.36787944117144233 2.718281828459045 0.36787944117144233 2.718281828459045 0.36787944117144233 1.0 1.0 2.718281828459045 0.36787944117144233 2.718281828459045 0.36787944117144233 2.718281828459045 0.36787944117144233 2.718281828459045 0.36787944117144233 1.0 1.0 2.718281828459045 0.36787944117144233 2.718281828459045 0.36787944117144233 1.0 1.0 2.718281828459045 0.36787944117144233 2.718281828459045 0.36787944117144233 1.0 1.0 2.718281828459045 0.36787944117144233 2.718281828459045 0.36787944117144233 2.718281828459045 0.36787944117144233 2.718281828459045 0.36787944117144233 1.0 1.0 2.718281828459045 0.36787944117144233 2.718281828459045 0.36787944117144233 2.718281828459045 0.36787944117144233 2.718281828459045 0.36787944117144233 1.0 1.0 2.718281828459045 0.36787944117144233 2.718281828459045 0.36787944117144233 2.718281828459045 0.36787944117144233 2.718281828459045 0.36787944117144233 2.718281828459045 0.36787944117144233 1.0 1.0 2.718281828459045 0.36787944117144233 2.718281828459045 0.36787944117144233 2.718281828459045 0.36787944117144233 1.0 1.0 2.718281828459045 0.36787944117144233 2.718281828459045 0.36787944117144233 2.718281828459045 0.36787944117144233 1.0 1.0 2.718281828459045 0.36787944117144233 2.718281828459045 0.36787944117144233 2.718281828459045 0.36787944117144233 2.718281828459045 0.36787944117144233 2.718281828459045 0.36787944117144233 1.0 1.0 2.718281828459045 0.36787944117144233 2.718281828459045 0.36787944117144233 2.718281828459045 0.36787944117144233 2.718281828459045 0.36787944117144233 1.0 1.0 2.718281828459045 0.36787944117144233 2.718281828459045 0.36787944117144233 1.0 1.0 2.718281828459045 0.36787944117144233 2.718281828459045 0.36787944117144233 2.718281828459045 0.36787944117144233 1.0 1.0 2.718281828459045 0.36787944117144233 2.718281828459045 0.36787944117144233 1.0 1.0 2.718281828459045 0.36787944117144233 2.718281828459045 0.36787944117144233 2.718281828459045 0.36787944117144233 1.0 1.0 2.718281828459045 0.36787944117144233 1.0 1.0 2.718281828459045 0.36787944117144233 2.718281828459045 0.36787944117144233 2.718281828459045 0.36787944117144233 2.718281828459045 0.36787944117144233 1.0 1.0 1.0 1.0 2.718281828459045 0.36787944117144233 1.0 1.0 2.718281828459045 0.36787944117144233 2.718281828459045 0.36787944117144233 2.718281828459045 0.36787944117144233 2.718281828459045 0.36787944117144233 2.718281828459045 0.36787944117144233 1.0 1.0 2.718281828459045 0.36787944117144233 2.718281828459045 0.36787944117144233 2.718281828459045 0.36787944117144233 2.718281828459045 0.36787944117144233 2.718281828459045 0.36787944117144233 1.0 1.0 2.718281828459045 0.36787944117144233 1.0 1.0 2.718281828459045 0.36787944117144233 2.718281828459045 0.36787944117144233 1.0 1.0 2.718281828459045 0.36787944117144233 2.718281828459045 0.36787944117144233 2.718281828459045 0.36787944117144233 2.718281828459045 0.36787944117144233 1.0 1.0 2.718281828459045 0.36787944117144233 2.718281828459045 0.36787944117144233 2.718281828459045 0.36787944117144233 1.0 1.0 1.0 1.0 2.718281828459045 0.36787944117144233 1.0 1.0 2.718281828459045 0.36787944117144233 1.0 1.0 2.718281828459045 0.36787944117144233 1.0 1.0 2.718281828459045 0.36787944117144233 2.718281828459045 0.36787944117144233 2.718281828459045 0.36787944117144233 1.0 1.0 2.718281828459045 0.36787944117144233 2.718281828459045 0.36787944117144233 2.718281828459045 0.36787944117144233 1.0 1.0 2.718281828459045 0.36787944117144233 1.0 1.0 2.718281828459045 0.36787944117144233 2.718281828459045 0.36787944117144233 2.718281828459045 0.36787944117144233 2.718281828459045 0.36787944117144233 1.0 1.0 2.718281828459045 0.36787944117144233 2.718281828459045 0.36787944117144233 2.718281828459045 0.36787944117144233 1.0 1.0 1.0 1.0 2.718281828459045 0.36787944117144233 1.0 1.0 1.0 1.0 2.718281828459045 0.36787944117144233 1.0 1.0 2.718281828459045 0.36787944117144233 1.0 1.0 2.718281828459045 0.36787944117144233 2.718281828459045 0.36787944117144233 2.718281828459045 0.36787944117144233 1.0 1.0 2.718281828459045 0.36787944117144233 1.0 1.0 2.718281828459045 0.36787944117144233 2.718281828459045 0.36787944117144233 2.718281828459045 0.36787944117144233 1.0 1.0 2.718281828459045 0.36787944117144233 2.718281828459045 0.36787944117144233 2.718281828459045 0.36787944117144233 2.718281828459045 0.36787944117144233 1.0 1.0 2.718281828459045 0.36787944117144233 2.718281828459045 0.36787944117144233 1.0 1.0 2.718281828459045 0.36787944117144233 1.0 1.0 2.718281828459045 0.36787944117144233 1.0 1.0 2.718281828459045 0.36787944117144233 2.718281828459045 0.36787944117144233 1.0 1.0 2.718281828459045 0.36787944117144233 2.718281828459045 0.36787944117144233 1.0 1.0 1.0 1.0 2.718281828459045 0.36787944117144233 1.0 1.0 1.0 1.0 2.718281828459045 0.36787944117144233 2.718281828459045 0.36787944117144233 1.0 1.0 2.718281828459045 0.36787944117144233 2.718281828459045 0.36787944117144233 1.0 1.0 2.718281828459045 0.36787944117144233 2.718281828459045 0.36787944117144233 2.718281828459045 0.36787944117144233 1.0 1.0 2.718281828459045 0.36787944117144233 2.718281828459045 0.36787944117144233 1.0 1.0 2.718281828459045 0.36787944117144233 2.718281828459045 0.36787944117144233 1.0 1.0 1.0 1.0 1.0 1.0 2.718281828459045 0.36787944117144233 1.0 1.0 1.0 1.0 2.718281828459045 0.36787944117144233 1.0 1.0 2.718281828459045 0.36787944117144233 2.718281828459045 0.36787944117144233 1.0 1.0 2.718281828459045 0.36787944117144233 2.718281828459045 0.36787944117144233 2.718281828459045 0.36787944117144233 1.0 1.0 1.0 1.0 1.0 1.0 2.718281828459045 0.36787944117144233 1.0 1.0 2.718281828459045 0.36787944117144233 2.718281828459045 0.36787944117144233 2.718281828459045 0.36787944117144233 1.0 1.0 1.0 1.0 1.0 1.0 1.0 1.0 1.0 1.0 1.0 1.0 2.718281828459045 0.36787944117144233 2.718281828459045 0.36787944117144233 2.718281828459045 0.36787944117144233 1.0 1.0 2.718281828459045 0.36787944117144233 1.0 1.0 2.718281828459045 0.36787944117144233 1.0 1.0 2.718281828459045 0.36787944117144233 1.0 1.0 2.718281828459045 0.36787944117144233 2.718281828459045 0.36787944117144233 1.0 1.0 2.718281828459045 0.36787944117144233 1.0 1.0 2.718281828459045 0.36787944117144233 1.0 1.0 1.0 1.0 1.0 1.0 1.0 1.0 2.718281828459045 0.36787944117144233 2.718281828459045 0.36787944117144233 1.0 1.0 1.0 1.0 1.0 1.0 1.0 1.0 2.718281828459045 0.36787944117144233 2.718281828459045 0.36787944117144233 1.0 1.0 1.0 1.0 1.0 1.0 1.0 1.0 1.0 1.0 1.0 1.0 1.0 1.0 1.0 1.0 1.0 1.0 1.0 1.0
2 1 91 0
2 -1 -91 0
-2 1 -91 0
-2 -1 91 0
3 1 143 0
3 -1 -143 0
-3 1 -143 0
-3 -1 143 0
4 1 260 0
4 -1 -260 0
-4 1 -260 0
-4 -1 260 0
5 1 378 0
5 -1 -378 0
-5 1 -378 0
-5 -1 378 0
7 6 194 0
7 -6 -194 0
-7 6 -194 0
-7 -6 194 0
8 6 202 0
8 -6 -202 0
-8 6 -202 0
-8 -6 202 0
9 6 223 0
9 -6 -223 0
-9 6 -223 0
-9 -6 223 0
10 6 249 0
10 -6 -249 0
-10 6 -249 0
-10 -6 249 0
12 11 50 0
12 -11 -50 0
-12 11 -50 0
-12 -11 50 0
13 11 131 0
13 -11 -131 0
-13 11 -131 0
-13 -11 131 0
14 11 206 0
14 -11 -206 0
-14 11 -206 0
-14 -11 206 0
16 15 199 0
16 -15 -199 0
-16 15 -199 0
-16 -15 199 0
17 15 298 0
17 -15 -298 0
-17 15 -298 0
-17 -15 298 0
18 15 312 0
18 -15 -312 0
-18 15 -312 0
-18 -15 312 0
19 15 315 0
19 -15 -315 0
-19 15 -315 0
-19 -15 315 0
20 15 336 0
20 -15 -336 0
-20 15 -336 0
-20 -15 336 0
21 15 358 0
21 -15 -358 0
-21 15 -358 0
-21 -15 358 0
22 15 383 0
22 -15 -383 0
-22 15 -383 0
-22 -15 383 0
23 15 394 0
23 -15 -394 0
-23 15 -394 0
-23 -15 394 0
25 24 97 0
25 -24 -97 0
-25 24 -97 0
-25 -24 97 0
26 24 250 0
26 -24 -250 0
-26 24 -250 0
-26 -24 250 0
27 24 264 0
27 -24 -264 0
-27 24 -264 0
-27 -24 264 0
28 24 328 0
28 -24 -328 0
-28 24 -328 0
-28 -24 328 0
29 24 345 0
29 -24 -345 0
-29 24 -345 0
-29 -24 345 0
30 24 364 0
30 -24 -364 0
-30 24 -364 0
-30 -24 364 0
32 31 213 0
32 -31 -213 0
-32 31 -213 0
-32 -31 213 0
33 31 249 0
33 -31 -249 0
-33 31 -249 0
-33 -31 249 0
34 31 314 0
34 -31 -314 0
-34 31 -314 0
-34 -31 314 0
35 31 346 0
35 -31 -346 0
-35 31 -346 0
-35 -31 346 0
37 36 254 0
37 -36 -254 0
-37 36 -254 0
-37 -36 254 0
38 36 354 0
38 -36 -354 0
-38 36 -354 0
-38 -36 354 0
40 39 133 0
40 -39 -133 0
-40 39 -133 0
-40 -39 133 0
41 39 366 0
41 -39 -366 0
-41 39 -366 0
-41 -39 366 0
43 42 123 0
43 -42 -123 0
-43 42 -123 0
-43 -42 123 0
44 42 206 0
44 -42 -206 0
-44 42 -206 0
-44 -42 206 0
45 42 281 0
45 -42 -281 0
-45 42 -281 0
-45 -42 281 0
46 42 362 0
46 -42 -362 0
-46 42 -362 0
-46 -42 362 0
48 47 138 0
48 -47 -138 0
-48 47 -138 0
-48 -47 138 0
49 47 303 0
49 -47 -303 0
-49 47 -303 0
-49 -47 303 0
51 50 174 0
51 -50 -174 0
-51 50 -174 0
-51 -50 174 0
52 50 260 0
52 -50 -260 0
-52 50 -260 0
-52 -50 260 0
53 50 311 0
53 -50 -311 0
-53 50 -311 0
-53 -50 311 0
54 50 314 0
54 -50 -314 0
-54 50 -314 0
-54 -50 314 0
55 50 378 0
55 -50 -378 0
-55 50 -378 0
-55 -50 378 0
57 56 184 0
57 -56 -184 0
-57 56 -184 0
-57 -56 184 0
58 56 235 0
58 -56 -235 0
-58 56 -235 0
-58 -56 235 0
59 56 331 0
59 -56 -331 0
-59 56 -331 0
-59 -56 331 0
60 56 391 0
60 -56 -391 0
-60 56 -391 0
-60 -56 391 0
62 61 109 0
62 -61 -109 0
-62 61 -109 0
-62 -61 109 0
63 61 209 0
63 -61 -209 0
-63 61 -209 0
-63 -61 209 0
64 61 235 0
64 -61 -235 0
-64 61 -235 0
-64 -61 235 0
65 61 279 0
65 -61 -279 0
-65 61 -279 0
-65 -61 279 0
66 61 332 0
66 -61 -332 0
-66 61 -332 0
-66 -61 332 0
68 67 130 0
68 -67 -130 0
-68 67 -130 0
-68 -67 130 0
69 67 161 0
69 -67 -161 0
-69 67 -161 0
-69 -67 161 0
70 67 336 0
70 -67 -336 0
-70 67 -336 0
-70 -67 336 0
72 71 143 0
72 -71 -143 0
-72 71 -143 0
-72 -71 143 0
73 71 281 0
73 -71 -281 0
-73 71 -281 0
-73 -71 281 0
76 75 82 0
76 -75 -82 0
-76 75 -82 0
-76 -75 82 0
77 75 209 0
77 -75 -209 0
-77 75 -209 0
-77 -75 209 0
78 75 264 0
78 -75 -264 0
-78 75 -264 0
-78 -75 264 0
79 75 293 0
79 -75 -293 0
-79 75 -293 0
-79 -75 293 0
80 75 353 0
80 -75 -353 0
-80 75 -353 0
-80 -75 353 0
81 75 391 0
81 -75 -391 0
-81 75 -391 0
-81 -75 391 0
83 82 174 0
83 -82 -174 0
-83 82 -174 0
-83 -82 174 0
84 82 188 0
84 -82 -188 0
-84 82 -188 0
-84 -82 188 0
85 82 209 0
85 -82 -209 0
-85 82 -209 0
-85 -82 209 0
86 82 279 0
86 -82 -279 0
-86 82 -279 0
-86 -82 279 0
87 82 391 0
87 -82 -391 0
-87 82 -391 0
-87 -82 391 0
89 88 308 0
89 -88 -308 0
-89 88 -308 0
-89 -88 308 0
90 88 376 0
90 -88 -376 0
-90 88 -376 0
-90 -88 376 0
92 91 138 0
92 -91 -138 0
-92 91 -138 0
-92 -91 138 0
93 91 209 0
93 -91 -209 0
-93 91 -209 0
-93 -91 209 0
94 91 266 0
94 -91 -266 0
-94 91 -266 0
-94 -91 266 0
95 91 325 0
95 -91 -325 0
-95 91 -325 0
-95 -91 325 0
96 91 355 0
96 -91 -355 0
-96 91 -355 0
-96 -91 355 0
98 97 314 0
98 -97 -314 0
-98 97 -314 0
-98 -97 314 0
99 97 358 0
99 -97 -358 0
-99 97 -358 0
-99 -97 358 0
100 97 368 0
100 -97 -368 0
-100 97 -368 0
-100 -97 368 0
101 97 392 0
101 -97 -392 0
-101 97 -392 0
-101 -97 392 0
103 102 164 0
103 -102 -164 0
-103 102 -164 0
-103 -102 164 0
104 102 358 0
104 -102 -358 0
-104 102 -358 0
-104 -102 358 0
105 102 375 0
105 -102 -375 0
-105 102 -375 0
-105 -102 375 0
107 106 237 0
107 -106 -237 0
-107 106 -237 0
-107 -106 237 0
108 106 321 0
108 -106 -321 0
-108 106 -321 0
-108 -106 321 0
110 109 202 0
110 -109 -202 0
-110 109 -202 0
-110 -109 202 0
111 109 281 0
111 -109 -281 0
-111 109 -281 0
-111 -109 281 0
113 112 147 0
113 -112 -147 0
-113 112 -147 0
-113 -112 147 0
114 112 174 0
114 -112 -174 0
-114 112 -174 0
-114 -112 174 0
115 112 213 0
115 -112 -213 0
-115 112 -213 0
-115 -112 213 0
116 112 318 0
116 -112 -318 0
-116 112 -318 0
-116 -112 318 0
117 112 347 0
117 -112 -347 0
-117 112 -347 0
-117 -112 347 0
119 118 289 0
119 -118 -289 0
-119 118 -289 0
-119 -118 289 0
120 118 338 0
120 -118 -338 0
-120 118 -338 0
-120 -118 338 0
121 118 357 0
121 -118 -357 0
-121 118 -357 0
-121 -118 357 0
122 118 368 0
122 -118 -368 0
-122 118 -368 0
-122 -118 368 0
124 123 161 0
124 -123 -161 0
-124 123 -161 0
-124 -123 161 0
125 123 276 0
125 -123 -276 0
-125 123 -276 0
-125 -123 276 0
126 123 345 0
126 -123 -345 0
-126 123 -345 0
-126 -123 345 0
127 123 357 0
127 -123 -357 0
-127 123 -357 0
-127 -123 357 0
128 123 362 0
128 -123 -362 0
-128 123 -362 0
-128 -123 362 0
129 123 364 0
129 -123 -364 0
-129 123 -364 0
-129 -123 364 0
132 131 240 0
132 -131 -240 0
-132 131 -240 0
-132 -131 240 0
134 133 184 0
134 -133 -184 0
-134 133 -184 0
-134 -133 184 0
136 135 356 0
136 -135 -356 0
-136 135 -356 0
-136 -135 356 0
137 135 366 0
137 -135 -366 0
-137 135 -366 0
-137 -135 366 0
139 138 220 0
139 -138 -220 0
-139 138 -220 0
-139 -138 220 0
140 138 279 0
140 -138 -279 0
-140 138 -279 0
-140 -138 279 0
141 138 283 0
141 -138 -283 0
-141 138 -283 0
-141 -138 283 0
142 138 331 0
142 -138 -331 0
-142 138 -331 0
-142 -138 331 0
144 143 158 0
144 -143 -158 0
-144 143 -158 0
-144 -143 158 0
145 143 249 0
145 -143 -249 0
-145 143 -249 0
-145 -143 249 0
146 143 325 0
146 -143 -325 0
-146 143 -325 0
-146 -143 325 0
148 147 254 0
148 -147 -254 0
-148 147 -254 0
-148 -147 254 0
149 147 260 0
149 -147 -260 0
-149 147 -260 0
-149 -147 260 0
150 147 275 0
150 -147 -275 0
-150 147 -275 0
-150 -147 275 0
151 147 382 0
151 -147 -382 0
-151 147 -382 0
-151 -147 382 0
152 147 392 0
152 -147 -392 0
-152 147 -392 0
-152 -147 392 0
154 153 223 0
154 -153 -223 0
-154 153 -223 0
-154 -153 223 0
155 153 260 0
155 -153 -260 0
-155 153 -260 0
-155 -153 260 0
156 153 358 0
156 -153 -358 0
-156 153 -358 0
-156 -153 358 0
157 153 377 0
157 -153 -377 0
-157 153 -377 0
-157 -153 377 0
159 158 264 0
159 -158 -264 0
-159 158 -264 0
-159 -158 264 0
160 158 373 0
160 -158 -373 0
-160 158 -373 0
-160 -158 373 0
162 161 194 0
162 -161 -194 0
-162 161 -194 0
-162 -161 194 0
163 161 378 0
163 -161 -378 0
-163 161 -378 0
-163 -161 378 0
165 164 237 0
165 -164 -237 0
-165 164 -237 0
-165 -164 237 0
166 164 287 0
166 -164 -287 0
-166 164 -287 0
-166 -164 287 0
167 164 362 0
167 -164 -362 0
-167 164 -362 0
-167 -164 362 0
168 164 395 0
168 -164 -395 0
-168 164 -395 0
-168 -164 395 0
170 169 279 0
170 -169 -279 0
-170 169 -279 0
-170 -169 279 0
171 169 298 0
171 -169 -298 0
-171 169 -298 0
-171 -169 298 0
172 169 336 0
172 -169 -336 0
-172 169 -336 0
-172 -169 336 0
173 169 373 0
173 -169 -373 0
-173 169 -373 0
-173 -169 373 0
175 174 223 0
175 -174 -223 0
-175 174 -223 0
-175 -174 223 0
176 174 252 0
176 -174 -252 0
-176 174 -252 0
-176 -174 252 0
177 174 276 0
177 -174 -276 0
-177 174 -276 0
-177 -174 276 0
178 174 331 0
178 -174 -331 0
-178 174 -331 0
-178 -174 331 0
179 174 376 0
179 -174 -376 0
-179 174 -376 0
-179 -174 376 0
181 180 220 0
181 -180 -220 0
-181 180 -220 0
-181 -180 220 0
182 180 355 0
182 -180 -355 0
-182 180 -355 0
-182 -180 355 0
183 180 387 0
183 -180 -387 0
-183 180 -387 0
-183 -180 387 0
185 184 355 0
185 -184 -355 0
-185 184 -355 0
-185 -184 355 0
186 184 390 0
186 -184 -390 0
-186 184 -390 0
-186 -184 390 0
187 184 394 0
187 -184 -394 0
-187 184 -394 0
-187 -184 394 0
189 188 206 0
189 -188 -206 0
-189 188 -206 0
-189 -188 206 0
190 188 220 0
190 -188 -220 0
-190 188 -220 0
-190 -188 220 0
191 188 235 0
191 -188 -235 0
-191 188 -235 0
-191 -188 235 0
192 188 301 0
192 -188 -301 0
-192 188 -301 0
-192 -188 301 0
193 188 362 0
193 -188 -362 0
-193 188 -362 0
-193 -188 362 0
195 194 271 0
195 -194 -271 0
-195 194 -271 0
-195 -194 271 0
196 194 315 0
196 -194 -315 0
-196 194 -315 0
-196 -194 315 0
197 194 333 0
197 -194 -333 0
-197 194 -333 0
-197 -194 333 0
198 194 364 0
198 -194 -364 0
-198 194 -364 0
-198 -194 364 0
200 199 312 0
200 -199 -312 0
-200 199 -312 0
-200 -199 312 0
201 199 375 0
201 -199 -375 0
-201 199 -375 0
-201 -199 375 0
203 202 249 0
203 -202 -249 0
-203 202 -249 0
-203 -202 249 0
204 202 293 0
204 -202 -293 0
-204 202 -293 0
-204 -202 293 0
205 202 391 0
205 -202 -391 0
-205 202 -391 0
-205 -202 391 0
207 206 375 0
207 -206 -375 0
-207 206 -375 0
-207 -206 375 0
208 206 388 0
208 -206 -388 0
-208 206 -388 0
-208 -206 388 0
210 209 279 0
210 -209 -279 0
-210 209 -279 0
-210 -209 279 0
211 209 281 0
211 -209 -281 0
-211 209 -281 0
-211 -209 281 0
212 209 357 0
212 -209 -357 0
-212 209 -357 0
-212 -209 357 0
214 213 264 0
214 -213 -264 0
-214 213 -264 0
-214 -213 264 0
216 215 237 0
216 -215 -237 0
-216 215 -237 0
-216 -215 237 0
217 215 346 0
217 -215 -346 0
-217 215 -346 0
-217 -215 346 0
218 215 357 0
218 -215 -357 0
-218 215 -357 0
-218 -215 357 0
219 215 396 0
219 -215 -396 0
-219 215 -396 0
-219 -215 396 0
222 221 357 0
222 -221 -357 0
-222 221 -357 0
-222 -221 357 0
224 223 229 0
224 -223 -229 0
-224 223 -229 0
-224 -223 229 0
225 223 249 0
225 -223 -249 0
-225 223 -249 0
-225 -223 249 0
226 223 254 0
226 -223 -254 0
-226 223 -254 0
-226 -223 254 0
227 223 303 0
227 -223 -303 0
-227 223 -303 0
-227 -223 303 0
228 223 362 0
228 -223 -362 0
-228 223 -362 0
-228 -223 362 0
230 229 281 0
230 -229 -281 0
-230 229 -281 0
-230 -229 281 0
231 229 287 0
231 -229 -287 0
-231 229 -287 0
-231 -229 287 0
232 229 345 0
232 -229 -345 0
-232 229 -345 0
-232 -229 345 0
233 229 382 0
233 -229 -382 0
-233 229 -382 0
-233 -229 382 0
234 229 394 0
234 -229 -394 0
-234 229 -394 0
-234 -229 394 0
236 235 362 0
236 -235 -362 0
-236 235 -362 0
-236 -235 362 0
238 237 311 0
238 -237 -311 0
-238 237 -311 0
-238 -237 311 0
239 237 347 0
239 -237 -347 0
-239 237 -347 0
-239 -237 347 0
241 240 275 0
241 -240 -275 0
-241 240 -275 0
-241 -240 275 0
242 240 341 0
242 -240 -341 0
-242 240 -341 0
-242 -240 341 0
243 240 373 0
243 -240 -373 0
-243 240 -373 0
-243 -240 373 0
244 240 381 0
244 -240 -381 0
-244 240 -381 0
-244 -240 381 0
246 245 276 0
246 -245 -276 0
-246 245 -276 0
-246 -245 276 0
247 245 388 0
247 -245 -388 0
-247 245 -388 0
-247 -245 388 0
248 245 389 0
248 -245 -389 0
-248 245 -389 0
-248 -245 389 0
251 250 333 0
251 -250 -333 0
-251 250 -333 0
-251 -250 333 0
253 252 394 0
253 -252 -394 0
-253 252 -394 0
-253 -252 394 0
255 254 375 0
255 -254 -375 0
-255 254 -375 0
-255 -254 375 0
257 256 264 0
257 -256 -264 0
-257 256 -264 0
-257 -256 264 0
258 256 375 0
258 -256 -375 0
-258 256 -375 0
-258 -256 375 0
259 256 396 0
259 -256 -396 0
-259 256 -396 0
-259 -256 396 0
261 260 312 0
261 -260 -312 0
-261 260 -312 0
-261 -260 312 0
262 260 383 0
262 -260 -383 0
-262 260 -383 0
-262 -260 383 0
263 260 389 0
263 -260 -389 0
-263 260 -389 0
-263 -260 389 0
265 264 279 0
265 -264 -279 0
-265 264 -279 0
-265 -264 279 0
267 266 315 0
267 -266 -315 0
-267 266 -315 0
-267 -266 315 0
268 266 347 0
268 -266 -347 0
-268 266 -347 0
-268 -266 347 0
269 266 389 0
269 -266 -389 0
-269 266 -389 0
-269 -266 389 0
270 266 393 0
270 -266 -393 0
-270 266 -393 0
-270 -266 393 0
272 271 287 0
272 -271 -287 0
-272 271 -287 0
-272 -271 287 0
273 271 332 0
273 -271 -332 0
-273 271 -332 0
-273 -271 332 0
274 271 375 0
274 -271 -375 0
-274 271 -375 0
-274 -271 375 0
277 276 393 0
277 -276 -393 0
-277 276 -393 0
-277 -276 393 0
280 279 305 0
280 -279 -305 0
-280 279 -305 0
-280 -279 305 0
282 281 328 0
282 -281 -328 0
-282 281 -328 0
-282 -281 328 0
284 283 312 0
284 -283 -312 0
-284 283 -312 0
-284 -283 312 0
285 283 336 0
285 -283 -336 0
-285 283 -336 0
-285 -283 336 0
286 283 355 0
286 -283 -355 0
-286 283 -355 0
-286 -283 355 0
288 287 293 0
288 -287 -293 0
-288 287 -293 0
-288 -287 293 0
290 289 335 0
290 -289 -335 0
-290 289 -335 0
-290 -289 335 0
291 289 375 0
291 -289 -375 0
-291 289 -375 0
-291 -289 375 0
292 289 388 0
292 -289 -388 0
-292 289 -388 0
-292 -289 388 0
294 293 338 0
294 -293 -338 0
-294 293 -338 0
-294 -293 338 0
295 293 358 0
295 -293 -358 0
-295 293 -358 0
-295 -293 358 0
296 293 383 0
296 -293 -383 0
-296 293 -383 0
-296 -293 383 0
297 293 391 0
297 -293 -391 0
-297 293 -391 0
-297 -293 391 0
299 298 328 0
299 -298 -328 0
-299 298 -328 0
-299 -298 328 0
300 298 384 0
300 -298 -384 0
-300 298 -384 0
-300 -298 384 0
302 301 346 0
302 -301 -346 0
-302 301 -346 0
-302 -301 346 0
304 303 377 0
304 -303 -377 0
-304 303 -377 0
-304 -303 377 0
306 305 332 0
306 -305 -332 0
-306 305 -332 0
-306 -305 332 0
307 305 353 0
307 -305 -353 0
-307 305 -353 0
-307 -305 353 0
309 308 345 0
309 -308 -345 0
-309 308 -345 0
-309 -308 345 0
310 308 393 0
310 -308 -393 0
-310 308 -393 0
-310 -308 393 0
313 312 371 0
313 -312 -371 0
-313 312 -371 0
-313 -312 371 0
316 315 354 0
316 -315 -354 0
-316 315 -354 0
-316 -315 354 0
317 315 389 0
317 -315 -389 0
-317 315 -389 0
-317 -315 389 0
319 318 366 0
319 -318 -366 0
-319 318 -366 0
-319 -318 366 0
320 318 390 0
320 -318 -390 0
-320 318 -390 0
-320 -318 390 0
322 321 338 0
322 -321 -338 0
-322 321 -338 0
-322 -321 338 0
323 321 358 0
323 -321 -358 0
-323 321 -358 0
-323 -321 358 0
324 321 390 0
324 -321 -390 0
-324 321 -390 0
-324 -321 390 0
326 325 368 0
326 -325 -368 0
-326 325 -368 0
-326 -325 368 0
327 325 377 0
327 -325 -377 0
-327 325 -377 0
-327 -325 377 0
329 328 366 0
329 -328 -366 0
-329 328 -366 0
-329 -328 366 0
330 328 396 0
330 -328 -396 0
-330 328 -396 0
-330 -328 396 0
334 333 390 0
334 -333 -390 0
-334 333 -390 0
-334 -333 390 0
337 336 378 0
337 -336 -378 0
-337 336 -378 0
-337 -336 378 0
339 338 364 0
339 -338 -364 0
-339 338 -364 0
-339 -338 364 0
340 338 391 0
340 -338 -391 0
-340 338 -391 0
-340 -338 391 0
342 341 349 0
342 -341 -349 0
-342 341 -349 0
-342 -341 349 0
343 341 356 0
343 -341 -356 0
-343 341 -356 0
-343 -341 356 0
344 341 393 0
344 -341 -393 0
-344 341 -393 0
-344 -341 393 0
348 347 388 0
348 -347 -388 0
-348 347 -388 0
-348 -347 388 0
350 349 366 0
350 -349 -366 0
-350 349 -366 0
-350 -349 366 0
351 349 377 0
351 -349 -377 0
-351 349 -377 0
-351 -349 377 0
352 349 394 0
352 -349 -394 0
-352 349 -394 0
-352 -349 394 0
359 358 371 0
359 -358 -371 0
-359 358 -371 0
-359 -358 371 0
360 358 375 0
360 -358 -375 0
-360 358 -375 0
-360 -358 375 0
361 358 383 0
361 -358 -383 0
-361 358 -383 0
-361 -358 383 0
363 362 371 0
363 -362 -371 0
-363 362 -371 0
-363 -362 371 0
365 364 391 0
365 -364 -391 0
-365 364 -391 0
-365 -364 391 0
367 366 384 0
367 -366 -384 0
-367 366 -384 0
-367 -366 384 0
369 368 383 0
369 -368 -383 0
-369 368 -383 0
-369 -368 383 0
370 368 395 0
370 -368 -395 0
-370 368 -395 0
-370 -368 395 0
372 371 387 0
372 -371 -387 0
-372 371 -387 0
-372 -371 387 0
374 373 378 0
374 -373 -378 0
-374 373 -378 0
-374 -373 378 0
379 378 394 0
379 -378 -394 0
-379 378 -394 0
-379 -378 394 0
380 378 396 0
380 -378 -396 0
-380 378 -396 0
-380 -378 396 0
385 384 393 0
385 -384 -393 0
-385 384 -393 0
-385 -384 393 0
386 384 394 0
386 -384 -394 0
-386 384 -394 0
-386 -384 394 0
